N = 3;
Capacity = 4;
nbVehicles = 3;
maxVisitsPerCustomer = 2;
ItemsPerCustomer = [6, 3, 3];
maxItemsPerCustomer = 6;
binCapacity = 50;
SizesOfItems = [|
  39, 30, 29, 27, 22, 21
| 28, 23, 22, 0, 0, 0
| 32, 22, 13, 0, 0, 0
|];
Distance = [|
  0, 11, 50, 42
| 11, 0, 61, 51
| 50, 61, 0, 26
| 42, 51, 26, 0
|];
